\ LP format - for model browsing. Use MPS format to capture full model detail.
Maximize
  45.77777777777777 z1 + 22.88888888888889 z2 + 40.44444444444444 z3
   + 12.66666666666668 z4 + 25.33333333333333 z5 + 22.88888888888889 z6
   + 18 z7 + 10.22222222222222 z8 + 18 z9 + 31.44444444444442 z10
   + 12.66666666666666 z11 + 46 z12 + 20 z13 + 30.22222222222221 z14
   + 40.44444444444444 z15 + 38.66666666666666 z16 + 36 z17 + 41 z18
   + 48 z19 + 40 z20
Subject To
 constraint1: 47 z1 + 24 z2 + 41 z3 + 14 z4 + 26 z5 + 23 z6 + 19 z7 + 11 z8
   + 18 z9 + 33 z10 + 13 z11 + 46 z12 + 20 z13 + 32 z14 + 41 z15 + 39 z16
   + 36 z17 + 41 z18 + 48 z19 + 40 z20 <= 200
 constraints2_10_&_18: z10 - z18 = 0
 constraints2_18_&_19: z18 - z19 = 0
 constraints2_19_&_20: z19 - z20 = 0
 constraints2_14_&_17: z14 - z17 = 0
 constraints3_7_|_9: z7 + z9 <= 1
 constraints3_8_|_10: z8 + z10 <= 1
 constraints3_9_|_14: z9 + z14 <= 1
 constraints3_10_|_12: z10 + z12 <= 1
 constraints3_10_|_13: z10 + z13 <= 1
 constraints3_10_|_14: z10 + z14 <= 1
 constraints3_10_|_16: z10 + z16 <= 1
 constraints3_12_|_15: z12 + z15 <= 1
 constraints3_12_|_16: z12 + z16 <= 1
 constraints3_12_|_18: z12 + z18 <= 1
 constraints3_13_|_15: z13 + z15 <= 1
 constraints3_14_|_19: z14 + z19 <= 1
 constraints3_16_|_18: z16 + z18 <= 1
Bounds
Binaries
 z1 z2 z3 z4 z5 z6 z7 z8 z9 z10 z11 z12 z13 z14 z15 z16 z17 z18 z19 z20
End
